p cnf 8 23
1 -3 0
1 -7 6 0
4 -8 3 -1 6 0
-5 6 4 0
2 -3 -5 -4 0
1 -5 8 -7 -2 3 6 0
5 8 -6 -7 -2 0
-2 -6 -7 5 0
-8 3 2 -1 -6 0
-4 -2 0
7 8 1 0
8 2 1 0
-6 -1 0
8 7 6 -3 0
-7 3 0
1 3 -2 7 0
-6 7 -2 -4 0
8 4 -3 -1 7 0
6 1 2 0
2 -3 0
2 7 0
1 -2 -8 4 7 6 0
-6 -1 0
